GLPSOL--GLPK LP/MIP Solver 5.0
Parameter(s) specified in the command line:
 --cpxlp --first new_inputs/order/dag3_tiers_input.lp -o solver_outputs/dag3_tiers_input.lp
Reading problem data from 'new_inputs/order/dag3_tiers_input.lp'...
new_inputs/order/dag3_tiers_input.lp:51102: warning: lower bound of variable 'm_13_13' redefined
new_inputs/order/dag3_tiers_input.lp:51102: warning: upper bound of variable 'm_13_13' redefined
50517 rows, 18916 columns, 146811 non-zeros
18916 integer variables, 18338 of which are binary
69920 lines were read
GLPK Integer Optimizer 5.0
50517 rows, 18916 columns, 146811 non-zeros
18916 integer variables, 18338 of which are binary
Preprocessing...
130 hidden packing inequaliti(es) were detected
2924 hidden covering inequaliti(es) were detected
9026 constraint coefficient(s) were reduced
49116 rows, 18064 columns, 142095 non-zeros
18064 integer variables, 17966 of which are binary
Scaling...
 A: min|aij| =  1.000e+00  max|aij| =  2.621e+05  ratio =  2.621e+05
GM: min|aij| =  3.186e-01  max|aij| =  3.138e+00  ratio =  9.849e+00
EQ: min|aij| =  1.015e-01  max|aij| =  1.000e+00  ratio =  9.849e+00
2N: min|aij| =  6.250e-02  max|aij| =  1.031e+00  ratio =  1.650e+01
Constructing initial basis...
Size of triangular part is 44603
Solving LP relaxation...
GLPK Simplex Optimizer 5.0
49116 rows, 18064 columns, 142095 non-zeros
      0: obj =   7.864320000e+05 inf =   1.623e+03 (952)
Perturbing LP to avoid stalling [202]...
   2137: obj =   8.107681066e+05 inf =   1.220e+03 (820) 20
   3732: obj =   8.373721331e+05 inf =   9.946e+02 (643) 16
   5105: obj =   8.584067662e+05 inf =   8.712e+02 (542) 13
   6380: obj =   8.713608850e+05 inf =   7.352e+02 (431) 13
   7578: obj =   9.336749087e+05 inf =   6.250e+02 (341) 12
   8728: obj =   9.955681653e+05 inf =   5.402e+02 (274) 11
   9834: obj =   1.042367653e+06 inf =   4.619e+02 (228) 11
  10945: obj =   1.055034733e+06 inf =   4.146e+02 (194) 10
  11966: obj =   1.093843504e+06 inf =   3.590e+02 (170) 10
  13020: obj =   1.104671570e+06 inf =   2.941e+02 (130) 10
  14063: obj =   1.109404012e+06 inf =   2.618e+02 (110) 11
  15095: obj =   1.108845272e+06 inf =   2.367e+02 (101) 10
  16122: obj =   1.135620104e+06 inf =   2.123e+02 (93) 10
  17133: obj =   1.143548749e+06 inf =   1.854e+02 (84) 10
  18145: obj =   1.154927231e+06 inf =   1.656e+02 (81) 10
  19124: obj =   1.213245605e+06 inf =   1.459e+02 (80) 9
  20125: obj =   1.277545828e+06 inf =   1.236e+02 (76) 10
  21118: obj =   1.289286399e+06 inf =   1.075e+02 (64) 10
  22110: obj =   1.318776015e+06 inf =   9.537e+01 (58) 9
  23085: obj =   1.351433741e+06 inf =   8.370e+01 (55) 10
  24061: obj =   1.403686679e+06 inf =   7.319e+01 (51) 9
  25019: obj =   1.460299654e+06 inf =   5.791e+01 (47) 10
  25979: obj =   1.499474934e+06 inf =   4.720e+01 (47) 9
  26923: obj =   1.500416567e+06 inf =   3.865e+01 (45) 9
  27871: obj =   1.525498639e+06 inf =   3.153e+01 (43) 10
  28804: obj =   1.546832032e+06 inf =   2.602e+01 (39) 9
  29745: obj =   1.586559450e+06 inf =   1.982e+01 (32) 9
  30681: obj =   1.646590048e+06 inf =   1.447e+01 (26) 9
  31580: obj =   1.682032285e+06 inf =   1.015e+01 (19) 9
  32536: obj =   1.705232918e+06 inf =   7.585e+00 (11) 9
  33481: obj =   1.737541579e+06 inf =   3.902e+00 (10) 9
  34430: obj =   1.754952049e+06 inf =   1.633e+00 (5) 9
  35365: obj =   1.767793616e+06 inf =   2.362e-01 (1) 9
  35522: obj =   1.761866077e+06 inf =   1.179e-05 (0) 2
* 36487: obj =   1.619127250e+06 inf =   1.210e-05 (4792) 9
* 37469: obj =   1.493326017e+06 inf =   8.944e-06 (4738) 10
* 38447: obj =   1.341696404e+06 inf =   1.244e-05 (5301) 9
* 39438: obj =   1.273872658e+06 inf =   1.041e-05 (5597) 10
* 40414: obj =   1.199547194e+06 inf =   1.297e-05 (5407) 10
* 41404: obj =   1.144469816e+06 inf =   1.254e-05 (6049) 9
* 42372: obj =   1.080873026e+06 inf =   1.991e-05 (5957) 10
* 43370: obj =   1.044164519e+06 inf =   1.497e-05 (5999) 10
* 44381: obj =   1.014230822e+06 inf =   2.317e-05 (6039) 9
* 45399: obj =   9.929941041e+05 inf =   2.592e-05 (6184) 10
* 46375: obj =   9.691934026e+05 inf =   2.891e-05 (5771) 10
* 47375: obj =   9.438789929e+05 inf =   2.312e-05 (5859) 9
* 48374: obj =   9.177881280e+05 inf =   2.113e-05 (6020) 10
* 49370: obj =   9.019613514e+05 inf =   2.576e-05 (5994) 10
* 50373: obj =   8.844859887e+05 inf =   2.885e-05 (6525) 10
* 51382: obj =   8.718202555e+05 inf =   2.712e-05 (6561) 10
* 52408: obj =   8.645652205e+05 inf =   2.999e-05 (5987) 10
* 53424: obj =   8.539250471e+05 inf =   3.455e-05 (6612) 9
* 54401: obj =   8.495322144e+05 inf =   3.242e-05 (5856) 10
* 55377: obj =   8.359229300e+05 inf =   3.023e-05 (5959) 10
* 56406: obj =   8.300044613e+05 inf =   3.040e-05 (5746) 10
* 57440: obj =   8.257351049e+05 inf =   3.853e-05 (6539) 10
* 58464: obj =   8.180989950e+05 inf =   4.453e-05 (5893) 10
* 59499: obj =   8.142719856e+05 inf =   4.814e-05 (5274) 10
* 60555: obj =   8.126742402e+05 inf =   7.507e-05 (5936) 10
* 61604: obj =   8.065592872e+05 inf =   5.373e-05 (6739) 10
* 62647: obj =   8.006319619e+05 inf =   4.095e-05 (6128) 11
* 63691: obj =   7.960282550e+05 inf =   3.703e-05 (6268) 10
* 64733: obj =   7.930076377e+05 inf =   5.400e-05 (5856) 10
* 65786: obj =   7.910351868e+05 inf =   3.876e-05 (6846) 10
* 66828: obj =   7.889817958e+05 inf =   6.361e-05 (5597) 11
* 67868: obj =   7.866216512e+05 inf =   4.019e-05 (5372) 10
* 68901: obj =   7.865422012e+05 inf =   5.259e-05 (6098) 10
* 69929: obj =   7.864581928e+05 inf =   4.783e-05 (5701) 10
Removing LP perturbation [70146]...
* 70146: obj =   7.864320000e+05 inf =   3.003e-13 (0) 2
OPTIMAL LP SOLUTION FOUND
Integer optimization begins...
Long-step dual simplex will be used
+ 70146: mip =     not found yet >=              -inf        (1; 0)
# 71774: obj =   7.864319996e+05 inf =   0.000e+00 (1331) 16 87%
# 72573: obj =   7.864319992e+05 inf =   0.000e+00 (1493) 8 100%
# 73374: obj =   7.864319990e+05 inf =   0.000e+00 (1074) 8 100%
# 74026: obj =   7.864320000e+05 inf =   0.000e+00 (0) 6 100%
+ 74026: mip =     not found yet >=   7.864320000e+05        (3; 0)
# 75964: obj =   7.864319998e+05 inf =   0.000e+00 (18243) 18 89%
# 76853: obj =   7.864319997e+05 inf =   0.000e+00 (19877) 9 100%
# 77736: obj =   7.864319997e+05 inf =   0.000e+00 (17093) 8 100%
# 78597: obj =   7.864319996e+05 inf =   0.000e+00 (18456) 9 100%
# 79453: obj =   7.864319995e+05 inf =   0.000e+00 (15608) 8 100%
# 80317: obj =   7.864319995e+05 inf =   0.000e+00 (17710) 8 100%
# 81183: obj =   7.864319994e+05 inf =   0.000e+00 (14899) 8 100%
# 82049: obj =   7.864319994e+05 inf =   0.000e+00 (12309) 8 100%
# 82909: obj =   7.864319995e+05 inf =   0.000e+00 (15506) 8 100%
# 83787: obj =   7.864319995e+05 inf =   0.000e+00 (16624) 9 100%
# 84623: obj =   7.864319994e+05 inf =   0.000e+00 (13716) 8 100%
# 85499: obj =   7.864319994e+05 inf =   0.000e+00 (15084) 8 100%
# 86379: obj =   7.864319995e+05 inf =   0.000e+00 (17140) 8 100%
# 87244: obj =   7.864319995e+05 inf =   0.000e+00 (14756) 8 100%
# 88143: obj =   7.864319995e+05 inf =   0.000e+00 (17031) 8 100%
# 88986: obj =   7.864319996e+05 inf =   0.000e+00 (16443) 8 100%
# 89813: obj =   7.864319995e+05 inf =   0.000e+00 (15308) 8 100%
# 90695: obj =   7.864319995e+05 inf =   0.000e+00 (17284) 9 100%
# 91507: obj =   7.864319996e+05 inf =   0.000e+00 (13740) 7 100%
# 92341: obj =   7.864319996e+05 inf =   0.000e+00 (14470) 8 100%
# 93190: obj =   7.864319996e+05 inf =   0.000e+00 (15238) 8 100%
# 94036: obj =   7.864319996e+05 inf =   0.000e+00 (15677) 8 100%
# 94889: obj =   7.864319996e+05 inf =   0.000e+00 (13129) 8 100%
# 95748: obj =   7.864319997e+05 inf =   0.000e+00 (13786) 8 100%
# 96586: obj =   7.864319997e+05 inf =   0.000e+00 (15296) 8 100%
# 97405: obj =   7.864319997e+05 inf =   0.000e+00 (16601) 8 100%
# 98249: obj =   7.864319997e+05 inf =   0.000e+00 (14864) 8 100%
# 99094: obj =   7.864319998e+05 inf =   0.000e+00 (14665) 8 99%
# 99923: obj =   7.864319997e+05 inf =   0.000e+00 (15229) 8 100%
#100748: obj =   7.864319997e+05 inf =   0.000e+00 (16047) 8 100%
#101583: obj =   7.864319997e+05 inf =   0.000e+00 (17520) 7 100%
#102415: obj =   7.864319997e+05 inf =   0.000e+00 (15445) 8 100%
#103244: obj =   7.864319997e+05 inf =   0.000e+00 (12450) 8 100%
#104087: obj =   7.864319998e+05 inf =   0.000e+00 (12690) 8 100%
#104923: obj =   7.864319998e+05 inf =   0.000e+00 (17839) 8 100%
#105743: obj =   7.864319998e+05 inf =   0.000e+00 (15221) 8 100%
#106549: obj =   7.864319998e+05 inf =   0.000e+00 (18990) 8 100%
#107357: obj =   7.864319998e+05 inf =   0.000e+00 (16619) 8 100%
#108196: obj =   7.864319998e+05 inf =   0.000e+00 (17583) 7 100%
#109024: obj =   7.864319999e+05 inf =   0.000e+00 (19119) 8 100%
#109837: obj =   7.864319999e+05 inf =   0.000e+00 (18485) 8 100%
#110650: obj =   7.864319998e+05 inf =   0.000e+00 (17733) 8 100%
#111432: obj =   7.864319998e+05 inf =   0.000e+00 (17698) 7 100%
#112227: obj =   7.864319998e+05 inf =   0.000e+00 (16934) 8 100%
#113029: obj =   7.864319998e+05 inf =   0.000e+00 (19180) 8 100%
#113826: obj =   7.864319998e+05 inf =   0.000e+00 (17719) 8 100%
#114637: obj =   7.864319998e+05 inf =   0.000e+00 (14904) 7 100%
#115438: obj =   7.864319997e+05 inf =   0.000e+00 (17941) 8 100%
#116247: obj =   7.864319997e+05 inf =   0.000e+00 (16892) 8 100%
#117063: obj =   7.864319997e+05 inf =   0.000e+00 (14711) 8 100%
#117866: obj =   7.864319998e+05 inf =   0.000e+00 (14782) 7 100%
#118666: obj =   7.864319997e+05 inf =   0.000e+00 (15525) 8 100%
#119467: obj =   7.864319998e+05 inf =   0.000e+00 (16031) 8 100%
#120273: obj =   7.864319998e+05 inf =   0.000e+00 (13577) 7 100%
#121076: obj =   7.864319998e+05 inf =   0.000e+00 (14951) 8 100%
#121862: obj =   7.864319998e+05 inf =   0.000e+00 (20408) 7 100%
#122655: obj =   7.864319998e+05 inf =   0.000e+00 (15855) 8 100%
#123433: obj =   7.864319997e+05 inf =   0.000e+00 (16624) 7 100%
#124240: obj =   7.864319998e+05 inf =   0.000e+00 (15916) 8 100%
#125048: obj =   7.864319999e+05 inf =   0.000e+00 (19892) 8 100%
#125836: obj =   7.864319999e+05 inf =   0.000e+00 (19919) 7 100%
#126634: obj =   7.864319999e+05 inf =   0.000e+00 (19715) 8 100%
#127435: obj =   7.864319998e+05 inf =   0.000e+00 (19791) 8 100%
#128230: obj =   7.864319998e+05 inf =   0.000e+00 (18456) 7 100%
#129029: obj =   7.864319998e+05 inf =   0.000e+00 (16814) 8 100%
#129826: obj =   7.864319998e+05 inf =   0.000e+00 (15442) 8 100%
#130594: obj =   7.864319999e+05 inf =   0.000e+00 (16344) 7 100%
#131387: obj =   7.864319999e+05 inf =   0.000e+00 (17445) 8 100%
#132188: obj =   7.864319998e+05 inf =   0.000e+00 (12556) 7 100%
#132978: obj =   7.864319998e+05 inf =   0.000e+00 (16325) 8 100%
#133773: obj =   7.864319998e+05 inf =   0.000e+00 (17697) 8 100%
#134577: obj =   7.864319998e+05 inf =   0.000e+00 (17669) 7 100%
#135366: obj =   7.864319998e+05 inf =   0.000e+00 (17288) 8 100%
#136159: obj =   7.864319998e+05 inf =   0.000e+00 (13613) 8 100%
#136953: obj =   7.864319998e+05 inf =   0.000e+00 (21186) 7 100%
#137739: obj =   7.864319998e+05 inf =   0.000e+00 (17816) 8 100%
#138523: obj =   7.864319998e+05 inf =   0.000e+00 (14681) 8 100%
#139321: obj =   7.864319998e+05 inf =   0.000e+00 (17729) 7 100%
#140107: obj =   7.864319998e+05 inf =   0.000e+00 (15944) 8 100%
#140896: obj =   7.864319998e+05 inf =   0.000e+00 (19117) 7 100%
#141686: obj =   7.864319998e+05 inf =   0.000e+00 (18824) 8 100%
#142467: obj =   7.864319998e+05 inf =   0.000e+00 (17630) 8 100%
#143251: obj =   7.864319998e+05 inf =   0.000e+00 (12468) 7 100%
#144033: obj =   7.864319999e+05 inf =   0.000e+00 (20562) 8 100%
#144822: obj =   7.864319998e+05 inf =   0.000e+00 (15062) 7 100%
#145598: obj =   7.864319998e+05 inf =   0.000e+00 (15380) 8 100%
#146372: obj =   7.864319998e+05 inf =   0.000e+00 (12163) 8 100%
#147169: obj =   7.864319999e+05 inf =   0.000e+00 (15803) 7 100%
#147955: obj =   7.864319999e+05 inf =   0.000e+00 (13760) 8 100%
#148727: obj =   7.864319999e+05 inf =   0.000e+00 (14169) 7 100%
#149472: obj =   7.864319999e+05 inf =   0.000e+00 (16698) 8 100%
#150246: obj =   7.864319999e+05 inf =   0.000e+00 (11303) 7 99%
#151024: obj =   7.864319998e+05 inf =   0.000e+00 (10366) 8 100%
#151805: obj =   7.864319998e+05 inf =   0.000e+00 (11245) 8 100%
#152597: obj =   7.864319998e+05 inf =   0.000e+00 (20692) 7 100%
#153370: obj =   7.864319998e+05 inf =   0.000e+00 (18625) 7 100%
#154154: obj =   7.864319998e+05 inf =   0.000e+00 (17590) 8 100%
#154925: obj =   7.864319998e+05 inf =   0.000e+00 (18948) 7 100%
#155694: obj =   7.864319998e+05 inf =   0.000e+00 (19225) 8 100%
#156472: obj =   7.864319998e+05 inf =   0.000e+00 (18978) 7 100%
#157253: obj =   7.864319999e+05 inf =   0.000e+00 (15726) 7 100%
#158035: obj =   7.864319999e+05 inf =   0.000e+00 (18152) 8 99%
#158812: obj =   7.864319999e+05 inf =   0.000e+00 (20103) 7 100%
#159585: obj =   7.864320000e+05 inf =   0.000e+00 (15299) 8 100%
#160366: obj =   7.864320000e+05 inf =   0.000e+00 (18757) 7 100%
#161149: obj =   7.864319999e+05 inf =   0.000e+00 (14961) 8 100%
#161946: obj =   7.864320000e+05 inf =   0.000e+00 (15006) 7 100%
#162712: obj =   7.864320000e+05 inf =   0.000e+00 (19461) 8 100%
#163493: obj =   7.864320000e+05 inf =   0.000e+00 (16432) 7 100%
#164273: obj =   7.864320000e+05 inf =   0.000e+00 (19827) 8 100%
#165065: obj =   7.864320000e+05 inf =   0.000e+00 (19154) 7 100%
#165847: obj =   7.864320000e+05 inf =   0.000e+00 (15321) 8 100%
#166638: obj =   7.864320000e+05 inf =   0.000e+00 (17112) 7 100%
#167412: obj =   7.864320000e+05 inf =   0.000e+00 (17324) 8 100%
#168195: obj =   7.864320000e+05 inf =   0.000e+00 (15883) 7 100%
#168974: obj =   7.864320000e+05 inf =   0.000e+00 (16620) 8 100%
#169749: obj =   7.864320000e+05 inf =   0.000e+00 (19970) 7 100%
#170519: obj =   7.864320000e+05 inf =   0.000e+00 (18817) 8 100%
#171296: obj =   7.864320000e+05 inf =   0.000e+00 (19425) 7 100%
#172076: obj =   7.864320000e+05 inf =   0.000e+00 (14512) 8 100%
#172852: obj =   7.864320000e+05 inf =   0.000e+00 (14729) 7 100%
#173634: obj =   7.864320000e+05 inf =   0.000e+00 (16364) 8 100%
#174409: obj =   7.864319999e+05 inf =   0.000e+00 (16714) 7 100%
#175179: obj =   7.864319999e+05 inf =   0.000e+00 (11830) 8 100%
#175955: obj =   7.864320000e+05 inf =   0.000e+00 (20787) 7 100%
#176731: obj =   7.864319999e+05 inf =   0.000e+00 (20347) 8 100%
#177495: obj =   7.864320000e+05 inf =   0.000e+00 (18594) 7 100%
#178267: obj =   7.864320000e+05 inf =   0.000e+00 (16363) 8 100%
#179039: obj =   7.864319999e+05 inf =   0.000e+00 (15886) 7 100%
#179807: obj =   7.864319999e+05 inf =   0.000e+00 (19443) 7 100%
#180588: obj =   7.864319999e+05 inf =   0.000e+00 (18392) 8 100%
#181351: obj =   7.864320000e+05 inf =   0.000e+00 (17288) 7 100%
#182130: obj =   7.864320000e+05 inf =   0.000e+00 (16969) 8 100%
#182907: obj =   7.864320001e+05 inf =   0.000e+00 (17375) 7 100%
#183685: obj =   7.864320001e+05 inf =   0.000e+00 (19050) 7 100%
#184467: obj =   7.864320002e+05 inf =   0.000e+00 (16404) 8 100%
#185247: obj =   7.864320001e+05 inf =   0.000e+00 (18497) 7 100%
#186025: obj =   7.864320002e+05 inf =   0.000e+00 (19650) 8 100%
#186772: obj =   7.864320002e+05 inf =   0.000e+00 (15149) 7 100%
#187519: obj =   7.864320001e+05 inf =   0.000e+00 (19335) 8 100%
#188303: obj =   7.864320002e+05 inf =   0.000e+00 (19436) 7 100%
#189068: obj =   7.864320001e+05 inf =   0.000e+00 (16150) 8 100%
#189832: obj =   7.864320001e+05 inf =   0.000e+00 (17495) 7 100%
#190608: obj =   7.864320002e+05 inf =   0.000e+00 (19229) 7 100%
#191380: obj =   7.864320002e+05 inf =   0.000e+00 (18257) 8 100%
#192166: obj =   7.864320002e+05 inf =   0.000e+00 (17787) 7 100%
#192953: obj =   7.864320003e+05 inf =   0.000e+00 (12826) 8 100%
#193737: obj =   7.864320003e+05 inf =   0.000e+00 (20909) 8 100%
#194530: obj =   7.864320003e+05 inf =   0.000e+00 (20127) 7 100%
#195315: obj =   7.864320003e+05 inf =   0.000e+00 (17716) 8 100%
#196077: obj =   7.864320002e+05 inf =   0.000e+00 (13830) 7 100%
#196845: obj =   7.864320002e+05 inf =   0.000e+00 (17179) 7 100%
#197625: obj =   7.864320002e+05 inf =   0.000e+00 (20275) 8 100%
#198415: obj =   7.864320002e+05 inf =   0.000e+00 (12047) 7 100%
#199211: obj =   7.864320002e+05 inf =   0.000e+00 (14307) 8 100%
#200000: obj =   7.864320002e+05 inf =   0.000e+00 (20138) 8 100%
#200760: obj =   7.864320002e+05 inf =   0.000e+00 (18727) 7 100%
#201544: obj =   7.864320002e+05 inf =   0.000e+00 (14331) 7 100%
#202305: obj =   7.864320002e+05 inf =   0.000e+00 (14826) 8 100%
#203076: obj =   7.864320003e+05 inf =   0.000e+00 (15183) 7 100%
#203843: obj =   7.864320002e+05 inf =   0.000e+00 (19563) 7 100%
#204607: obj =   7.864320002e+05 inf =   0.000e+00 (20836) 8 100%
#205360: obj =   7.864320003e+05 inf =   0.000e+00 (15009) 7 100%
#206139: obj =   7.864320003e+05 inf =   0.000e+00 (14784) 7 100%
#206894: obj =   7.864320003e+05 inf =   0.000e+00 (20747) 8 100%
#207660: obj =   7.864320003e+05 inf =   0.000e+00 (18444) 7 100%
#208422: obj =   7.864320003e+05 inf =   0.000e+00 (17703) 8 100%
#209189: obj =   7.864320003e+05 inf =   0.000e+00 (9476) 7 100%
#209955: obj =   7.864320003e+05 inf =   0.000e+00 (15551) 8 100%
#210715: obj =   7.864320003e+05 inf =   0.000e+00 (18552) 7 100%
#211481: obj =   7.864320002e+05 inf =   0.000e+00 (13964) 7 100%
#212246: obj =   7.864320002e+05 inf =   0.000e+00 (16697) 8 100%
#213007: obj =   7.864320002e+05 inf =   0.000e+00 (16904) 7 100%
#213764: obj =   7.864320001e+05 inf =   0.000e+00 (19717) 7 100%
#214521: obj =   7.864320001e+05 inf =   0.000e+00 (19188) 7 100%
#215288: obj =   7.864320001e+05 inf =   0.000e+00 (17106) 7 100%
#216092: obj =   7.864320002e+05 inf =   0.000e+00 (11114) 8 100%
#216859: obj =   7.864320002e+05 inf =   0.000e+00 (18245) 7 100%
#217626: obj =   7.864320003e+05 inf =   0.000e+00 (16580) 8 100%
#218410: obj =   7.864320003e+05 inf =   0.000e+00 (13606) 7 100%
#219177: obj =   7.864320003e+05 inf =   0.000e+00 (11756) 7 100%
#219946: obj =   7.864320003e+05 inf =   0.000e+00 (15988) 8 100%
#220720: obj =   7.864320003e+05 inf =   0.000e+00 (16210) 7 100%
#221468: obj =   7.864320002e+05 inf =   0.000e+00 (15343) 7 100%
#222241: obj =   7.864320003e+05 inf =   0.000e+00 (19149) 8 100%
#223002: obj =   7.864320003e+05 inf =   0.000e+00 (16381) 7 100%
#223739: obj =   7.864320002e+05 inf =   0.000e+00 (13264) 7 100%
#224507: obj =   7.864320003e+05 inf =   0.000e+00 (16189) 8 100%
#225274: obj =   7.864320002e+05 inf =   0.000e+00 (16973) 7 100%
#226047: obj =   7.864320003e+05 inf =   0.000e+00 (14143) 8 100%
#226822: obj =   7.864320003e+05 inf =   0.000e+00 (16802) 7 100%
#227578: obj =   7.864320002e+05 inf =   0.000e+00 (15853) 7 100%
#228335: obj =   7.864320002e+05 inf =   0.000e+00 (15269) 8 100%
#229119: obj =   7.864320002e+05 inf =   0.000e+00 (17203) 7 100%
#229886: obj =   7.864320002e+05 inf =   0.000e+00 (18015) 8 100%
#230654: obj =   7.864320002e+05 inf =   0.000e+00 (18782) 7 100%
#231422: obj =   7.864320002e+05 inf =   0.000e+00 (14823) 7 100%
#232199: obj =   7.864320002e+05 inf =   0.000e+00 (10298) 8 100%
#232965: obj =   7.864320002e+05 inf =   0.000e+00 (19764) 7 100%
#233727: obj =   7.864320003e+05 inf =   0.000e+00 (17310) 8 100%
#234495: obj =   7.864320002e+05 inf =   0.000e+00 (14110) 7 100%
#235261: obj =   7.864320002e+05 inf =   0.000e+00 (15770) 7 100%
#236038: obj =   7.864320002e+05 inf =   0.000e+00 (12863) 8 100%
#236789: obj =   7.864320002e+05 inf =   0.000e+00 (18955) 7 100%
#237554: obj =   7.864320003e+05 inf =   0.000e+00 (21090) 8 100%
#238321: obj =   7.864320003e+05 inf =   0.000e+00 (11344) 7 100%
#239086: obj =   7.864320003e+05 inf =   0.000e+00 (20458) 7 100%
#239845: obj =   7.864320003e+05 inf =   0.000e+00 (15759) 8 100%
#240617: obj =   7.864320003e+05 inf =   0.000e+00 (13089) 7 100%
#241375: obj =   7.864320002e+05 inf =   0.000e+00 (19159) 8 100%
#242131: obj =   7.864320003e+05 inf =   0.000e+00 (18466) 7 100%
#242893: obj =   7.864320003e+05 inf =   0.000e+00 (16321) 7 100%
#243661: obj =   7.864320003e+05 inf =   0.000e+00 (20563) 8 99%
#244418: obj =   7.864320003e+05 inf =   0.000e+00 (20252) 7 99%
#245185: obj =   7.864320003e+05 inf =   0.000e+00 (12155) 7 100%
#245953: obj =   7.864320003e+05 inf =   0.000e+00 (18986) 8 100%
#246725: obj =   7.864320003e+05 inf =   0.000e+00 (13540) 7 100%
#247481: obj =   7.864320003e+05 inf =   0.000e+00 (15402) 8 100%
#248238: obj =   7.864320003e+05 inf =   0.000e+00 (13634) 7 100%
#249009: obj =   7.864320003e+05 inf =   0.000e+00 (12906) 7 100%
#249764: obj =   7.864320003e+05 inf =   0.000e+00 (19873) 8 100%
#250522: obj =   7.864320003e+05 inf =   0.000e+00 (17735) 7 100%
#251279: obj =   7.864320003e+05 inf =   0.000e+00 (13339) 7 100%
#252033: obj =   7.864320002e+05 inf =   0.000e+00 (17862) 8 100%
#252795: obj =   7.864320002e+05 inf =   0.000e+00 (18244) 7 100%
#253553: obj =   7.864320002e+05 inf =   0.000e+00 (19419) 8 100%
#254307: obj =   7.864320002e+05 inf =   0.000e+00 (11874) 7 100%
#255079: obj =   7.864320001e+05 inf =   0.000e+00 (13137) 7 100%
#255822: obj =   7.864320001e+05 inf =   0.000e+00 (17740) 7 100%
#256594: obj =   7.864320001e+05 inf =   0.000e+00 (15941) 7 100%
#257368: obj =   7.864320002e+05 inf =   0.000e+00 (12855) 8 100%
#258154: obj =   7.864320003e+05 inf =   0.000e+00 (16934) 7 100%
#258921: obj =   7.864320004e+05 inf =   0.000e+00 (15660) 8 100%
#259686: obj =   7.864320004e+05 inf =   0.000e+00 (16013) 7 100%
#260438: obj =   7.864320005e+05 inf =   0.000e+00 (18710) 7 100%
#261205: obj =   7.864320005e+05 inf =   0.000e+00 (17793) 7 100%
#261960: obj =   7.864320004e+05 inf =   0.000e+00 (18580) 8 100%
#262729: obj =   7.864320005e+05 inf =   0.000e+00 (19625) 7 100%
#263490: obj =   7.864320005e+05 inf =   0.000e+00 (18196) 7 100%
#264254: obj =   7.864320005e+05 inf =   0.000e+00 (14724) 8 100%
#265017: obj =   7.864320005e+05 inf =   0.000e+00 (15993) 7 100%
#265777: obj =   7.864320004e+05 inf =   0.000e+00 (9831) 8 100%
#266535: obj =   7.864320005e+05 inf =   0.000e+00 (21558) 7 100%
#267289: obj =   7.864320005e+05 inf =   0.000e+00 (17587) 7 100%
#268041: obj =   7.864320004e+05 inf =   0.000e+00 (20804) 7 100%
#268794: obj =   7.864320004e+05 inf =   0.000e+00 (20243) 8 100%
#269554: obj =   7.864320004e+05 inf =   0.000e+00 (15406) 7 100%
#270316: obj =   7.864320003e+05 inf =   0.000e+00 (17360) 7 100%
#271085: obj =   7.864320003e+05 inf =   0.000e+00 (16546) 8 100%
#271863: obj =   7.864320003e+05 inf =   0.000e+00 (21430) 7 100%
#272627: obj =   7.864320003e+05 inf =   0.000e+00 (13487) 8 100%
#273388: obj =   7.864320003e+05 inf =   0.000e+00 (14103) 7 99%
#274158: obj =   7.864320003e+05 inf =   0.000e+00 (17209) 8 100%
#274928: obj =   7.864320003e+05 inf =   0.000e+00 (15448) 7 100%
#275698: obj =   7.864320003e+05 inf =   0.000e+00 (19411) 7 100%
#276460: obj =   7.864320003e+05 inf =   0.000e+00 (18407) 8 100%
#277237: obj =   7.864320003e+05 inf =   0.000e+00 (11771) 7 100%
#277996: obj =   7.864320003e+05 inf =   0.000e+00 (17980) 7 100%
#278750: obj =   7.864320003e+05 inf =   0.000e+00 (16118) 8 100%
#279516: obj =   7.864320003e+05 inf =   0.000e+00 (20245) 7 100%
#280274: obj =   7.864320003e+05 inf =   0.000e+00 (10086) 8 100%
#281048: obj =   7.864320003e+05 inf =   0.000e+00 (17986) 7 100%
#281825: obj =   7.864320002e+05 inf =   0.000e+00 (10517) 7 100%
#282592: obj =   7.864320003e+05 inf =   0.000e+00 (14467) 8 100%
#283349: obj =   7.864320003e+05 inf =   0.000e+00 (19302) 7 100%
#284120: obj =   7.864320003e+05 inf =   0.000e+00 (12642) 8 100%
#284887: obj =   7.864320003e+05 inf =   0.000e+00 (8433) 7 100%
#285646: obj =   7.864320003e+05 inf =   0.000e+00 (20487) 7 99%
#286397: obj =   7.864320003e+05 inf =   0.000e+00 (19456) 8 100%
#287158: obj =   7.864320003e+05 inf =   0.000e+00 (13203) 7 100%
#287894: obj =   7.864320003e+05 inf =   0.000e+00 (16772) 7 100%
#288645: obj =   7.864320004e+05 inf =   0.000e+00 (12106) 7 100%
#289381: obj =   7.864320003e+05 inf =   0.000e+00 (18200) 8 100%
#290150: obj =   7.864320003e+05 inf =   0.000e+00 (15443) 7 100%
#290908: obj =   7.864320003e+05 inf =   0.000e+00 (12003) 7 100%
#291666: obj =   7.864320003e+05 inf =   0.000e+00 (12603) 8 100%
#292419: obj =   7.864320003e+05 inf =   0.000e+00 (11642) 7 100%
#293184: obj =   7.864320003e+05 inf =   0.000e+00 (15838) 7 100%
#293963: obj =   7.864320003e+05 inf =   0.000e+00 (16222) 7 100%
#294715: obj =   7.864320003e+05 inf =   0.000e+00 (15539) 8 100%
#295486: obj =   7.864320003e+05 inf =   0.000e+00 (20321) 7 100%
#296228: obj =   7.864320004e+05 inf =   0.000e+00 (16483) 7 100%
#296973: obj =   7.864320004e+05 inf =   0.000e+00 (17868) 7 100%
#297729: obj =   7.864320004e+05 inf =   0.000e+00 (18305) 8 100%
#298477: obj =   7.864320004e+05 inf =   0.000e+00 (18549) 7 100%
#299241: obj =   7.864320004e+05 inf =   0.000e+00 (14345) 7 100%
